words_hard_train/5336.qaiger
aag 50 15 0 1 35
2
4
8
10
14
16
24
26
32
36
42
46
52
60
66
101
6 3 4
12 9 11
18 15 17
20 12 18
22 6 20
28 25 27
30 22 28
34 32 5
38 37 10
40 35 39
44 42 17
48 46 27
50 45 49
54 53 14
56 47 26
58 55 57
62 60 9
64 63 24
68 64 67
70 61 8
72 69 71
74 52 15
76 73 75
78 58 77
80 50 79
82 43 16
84 81 83
86 36 11
88 85 87
90 40 89
92 33 4
94 91 93
96 30 95
98 31 94
100 97 99
i0 2 y1[0]
i1 2 y1[7]
i2 2 y1[2]
i3 2 y1[6]
i4 2 y1[3]
i5 2 y1[5]
i6 2 y1[1]
i7 2 y1[4]
i8 1 x2[7]
i9 1 x2[6]
i10 1 x2[5]
i11 1 x2[4]
i12 1 x2[3]
i13 1 x2[2]
i14 1 x2[1]
o0 bv[0]
c
simplified
  <=
    unary minus
      2 y1
    and
      invert
        1
      invert
        1 x2
