words_hard_train/5336.qaiger.qdimacs
p cnf 50 106
a 33 16 18 21 23 26 30 0
e 1 2 3 4 5 6 7 8 9 10 11 12 13 14 15 17 19 20 22 24 25 27 28 29 31 32 34 35 36 37 38 39 40 41 42 43 44 45 46 47 48 49 50 0
1 -2 3 0
-1 -3 0
2 -3 0
4 5 6 0
-4 -6 0
-5 -6 0
7 8 9 0
-7 -9 0
-8 -9 0
-6 -9 10 0
6 -10 0
9 -10 0
-3 -10 11 0
3 -11 0
10 -11 0
12 13 14 0
-12 -14 0
-13 -14 0
-11 -14 15 0
11 -15 0
14 -15 0
-16 2 17 0
16 -17 0
-2 -17 0
18 -5 19 0
-18 -19 0
5 -19 0
17 19 20 0
-17 -20 0
-19 -20 0
-21 8 22 0
21 -22 0
-8 -22 0
-23 13 24 0
23 -24 0
-13 -24 0
22 24 25 0
-22 -25 0
-24 -25 0
26 -7 27 0
-26 -27 0
7 -27 0
23 -13 28 0
-23 -28 0
13 -28 0
27 28 29 0
-27 -29 0
-28 -29 0
-30 4 31 0
30 -31 0
-4 -31 0
31 -12 32 0
-31 -32 0
12 -32 0
-32 33 34 0
32 -34 0
-33 -34 0
30 -4 35 0
-30 -35 0
4 -35 0
34 35 36 0
-34 -36 0
-35 -36 0
-26 7 37 0
26 -37 0
-7 -37 0
36 37 38 0
-36 -38 0
-37 -38 0
-29 38 39 0
29 -39 0
-38 -39 0
-25 39 40 0
25 -40 0
-39 -40 0
21 -8 41 0
-21 -41 0
8 -41 0
40 41 42 0
-40 -42 0
-41 -42 0
-18 5 43 0
18 -43 0
-5 -43 0
42 43 44 0
-42 -44 0
-43 -44 0
-20 44 45 0
20 -45 0
-44 -45 0
16 -2 46 0
-16 -46 0
2 -46 0
45 46 47 0
-45 -47 0
-46 -47 0
-15 47 48 0
15 -48 0
-47 -48 0
15 -47 49 0
-15 -49 0
47 -49 0
48 49 50 0
-48 -50 0
-49 -50 0
-50 0
